sat
(:arith-branch          8
 :arith-conflicts       1
 :arith-cube-calls      2
 :arith-dio-calls       8
 :arith-gcd-calls       9
 :arith-lower           23
 :arith-make-feasible   17
 :arith-max-columns     56
 :arith-max-rows        32
 :arith-patches         9
 :arith-patches-success 1
 :arith-upper           16
 :conflicts             1
 :decisions             8
 :final-checks          9
 :max-memory            19.38
 :memory                18.65
 :mk-bool-var           38
 :mk-clause             1
 :num-allocs            326674
 :num-checks            1
 :rlimit-count          5899
 :time                  0.06
 :total-time            0.13)
